\ Model pathplanner
\ LP format - for model browsing. Use MPS format to capture full model detail.
Minimize
  delta_1 + delta_2 + delta_3 + delta_4
Subject To
 c1_1,1,1: x_1,1,1 = 1
 c1_1,2,1: x_1,2,1 = 0
 c1_1,3,1: x_1,3,1 = 0
 c1_2,1,1: x_2,1,1 = 1
 c1_2,2,1: x_2,2,1 = 0
 c1_2,3,1: x_2,3,1 = 0
 c2_1,2: x_1,1,2 + x_1,2,2 + x_1,3,2 = 1
 c2_1,3: x_1,1,3 + x_1,2,3 + x_1,3,3 = 1
 c2_1,4: x_1,1,4 + x_1,2,4 + x_1,3,4 = 1
 c2_2,2: x_2,1,2 + x_2,2,2 + x_2,3,2 = 1
 c2_2,3: x_2,1,3 + x_2,2,3 + x_2,3,3 = 1
 c2_2,4: x_2,1,4 + x_2,2,4 + x_2,3,4 = 1
 c3_1: x_1,3,1 + x_1,3,2 + x_1,3,3 + x_1,3,4 >= 1
 c3_2: x_2,3,1 + x_2,3,2 + x_2,3,3 + x_2,3,4 >= 1
 c4_1: 2 delta_1 + x_1,3,1 + x_2,3,1 >= 2
 c4_2: 2 delta_2 + x_1,3,2 + x_2,3,2 >= 2
 c4_3: 2 delta_3 + x_1,3,3 + x_2,3,3 >= 2
 c4_4: 2 delta_4 + x_1,3,4 + x_2,3,4 >= 2
 c5a_1,1: e_1,1,2,1 + e_1,1,1,1 <= 1
 c5b_1,1: e_1,2,1,1 + e_1,2,3,1 + e_1,3,3,1 + e_1,2,2,1 + e_1,3,2,1 = 0
 c5a_2,1: e_2,1,2,1 + e_2,1,1,1 <= 1
 c5b_2,1: e_2,2,1,1 + e_2,2,3,1 + e_2,3,3,1 + e_2,2,2,1 + e_2,3,2,1 = 0
 c6_1,2: e_1,1,2,2 + e_1,2,1,2 + e_1,1,1,2 + e_1,2,3,2 + e_1,3,3,2
   + e_1,2,2,2 + e_1,3,2,2 = 1
 c6_1,3: e_1,1,2,3 + e_1,2,1,3 + e_1,1,1,3 + e_1,2,3,3 + e_1,3,3,3
   + e_1,2,2,3 + e_1,3,2,3 = 1
 c6_2,2: e_2,1,2,2 + e_2,2,1,2 + e_2,1,1,2 + e_2,2,3,2 + e_2,3,3,2
   + e_2,2,2,2 + e_2,3,2,2 = 1
 c6_2,3: e_2,1,2,3 + e_2,2,1,3 + e_2,1,1,3 + e_2,2,3,3 + e_2,3,3,3
   + e_2,2,2,3 + e_2,3,2,3 = 1
 c7_1,1,2: e_1,1,2,2 - e_1,2,1,1 - e_1,1,1,1 + e_1,1,1,2 = 0
 c7_1,1,3: e_1,1,2,3 - e_1,2,1,2 - e_1,1,1,2 + e_1,1,1,3 = 0
 c7_1,2,2: - e_1,1,2,1 + e_1,2,1,2 + e_1,2,3,2 - e_1,2,2,1 + e_1,2,2,2
   - e_1,3,2,1 = 0
 c7_1,2,3: - e_1,1,2,2 + e_1,2,1,3 + e_1,2,3,3 - e_1,2,2,2 + e_1,2,2,3
   - e_1,3,2,2 = 0
 c7_1,3,2: - e_1,2,3,1 - e_1,3,3,1 + e_1,3,3,2 + e_1,3,2,2 = 0
 c7_1,3,3: - e_1,2,3,2 - e_1,3,3,2 + e_1,3,3,3 + e_1,3,2,3 = 0
 c7_2,1,2: e_2,1,2,2 - e_2,2,1,1 - e_2,1,1,1 + e_2,1,1,2 = 0
 c7_2,1,3: e_2,1,2,3 - e_2,2,1,2 - e_2,1,1,2 + e_2,1,1,3 = 0
 c7_2,2,2: - e_2,1,2,1 + e_2,2,1,2 + e_2,2,3,2 - e_2,2,2,1 + e_2,2,2,2
   - e_2,3,2,1 = 0
 c7_2,2,3: - e_2,1,2,2 + e_2,2,1,3 + e_2,2,3,3 - e_2,2,2,2 + e_2,2,2,3
   - e_2,3,2,2 = 0
 c7_2,3,2: - e_2,2,3,1 - e_2,3,3,1 + e_2,3,3,2 + e_2,3,2,2 = 0
 c7_2,3,3: - e_2,2,3,2 - e_2,3,3,2 + e_2,3,3,3 + e_2,3,2,3 = 0
 c8_1,1: p_1,1,1 + p_1,2,1 <= 1
 c8_1,2: p_1,1,2 + p_1,2,2 <= 1
 c8_1,3: p_1,1,3 + p_1,2,3 <= 1
 c8_2,1: p_2,1,1 + p_2,2,1 <= 1
 c8_2,2: p_2,1,2 + p_2,2,2 <= 1
 c8_2,3: p_2,1,3 + p_2,2,3 <= 1
 c9a_1,1,2,1: x_1,1,1 + x_1,2,2 - p_1,1,1 - p_1,2,1 <= 1
 c9b_1,1,1,2,1: - e_1,1,2,1 + x_1,1,1 + x_1,2,2 + p_1,1,1 <= 2
 c9c_1,1,1,2,1: e_1,1,2,1 - x_1,1,1 + p_1,1,1 <= 1
 c9d_1,1,1,2,1: e_1,1,2,1 - x_1,2,2 + p_1,1,1 <= 1
 c9b_1,2,1,2,1: - e_2,1,2,1 + x_1,1,1 + x_1,2,2 + p_1,2,1 <= 2
 c9c_1,2,1,2,1: e_2,1,2,1 - x_1,1,1 + p_1,2,1 <= 1
 c9d_1,2,1,2,1: e_2,1,2,1 - x_1,2,2 + p_1,2,1 <= 1
 c9a_1,1,2,2: x_1,1,2 + x_1,2,3 - p_1,1,2 - p_1,2,2 <= 1
 c9b_1,1,1,2,2: - e_1,1,2,2 + x_1,1,2 + x_1,2,3 + p_1,1,2 <= 2
 c9c_1,1,1,2,2: e_1,1,2,2 - x_1,1,2 + p_1,1,2 <= 1
 c9d_1,1,1,2,2: e_1,1,2,2 - x_1,2,3 + p_1,1,2 <= 1
 c9b_1,2,1,2,2: - e_2,1,2,2 + x_1,1,2 + x_1,2,3 + p_1,2,2 <= 2
 c9c_1,2,1,2,2: e_2,1,2,2 - x_1,1,2 + p_1,2,2 <= 1
 c9d_1,2,1,2,2: e_2,1,2,2 - x_1,2,3 + p_1,2,2 <= 1
 c9a_1,1,2,3: x_1,1,3 + x_1,2,4 - p_1,1,3 - p_1,2,3 <= 1
 c9b_1,1,1,2,3: - e_1,1,2,3 + x_1,1,3 + x_1,2,4 + p_1,1,3 <= 2
 c9c_1,1,1,2,3: e_1,1,2,3 - x_1,1,3 + p_1,1,3 <= 1
 c9d_1,1,1,2,3: e_1,1,2,3 - x_1,2,4 + p_1,1,3 <= 1
 c9b_1,2,1,2,3: - e_2,1,2,3 + x_1,1,3 + x_1,2,4 + p_1,2,3 <= 2
 c9c_1,2,1,2,3: e_2,1,2,3 - x_1,1,3 + p_1,2,3 <= 1
 c9d_1,2,1,2,3: e_2,1,2,3 - x_1,2,4 + p_1,2,3 <= 1
 c9a_1,2,1,1: x_1,1,2 + x_1,2,1 - p_1,1,1 - p_1,2,1 <= 1
 c9b_1,1,2,1,1: - e_1,2,1,1 + x_1,1,2 + x_1,2,1 + p_1,1,1 <= 2
 c9c_1,1,2,1,1: e_1,2,1,1 - x_1,2,1 + p_1,1,1 <= 1
 c9d_1,1,2,1,1: e_1,2,1,1 - x_1,1,2 + p_1,1,1 <= 1
 c9b_1,2,2,1,1: - e_2,2,1,1 + x_1,1,2 + x_1,2,1 + p_1,2,1 <= 2
 c9c_1,2,2,1,1: e_2,2,1,1 - x_1,2,1 + p_1,2,1 <= 1
 c9d_1,2,2,1,1: e_2,2,1,1 - x_1,1,2 + p_1,2,1 <= 1
 c9a_1,2,1,2: x_1,1,3 + x_1,2,2 - p_1,1,2 - p_1,2,2 <= 1
 c9b_1,1,2,1,2: - e_1,2,1,2 + x_1,1,3 + x_1,2,2 + p_1,1,2 <= 2
 c9c_1,1,2,1,2: e_1,2,1,2 - x_1,2,2 + p_1,1,2 <= 1
 c9d_1,1,2,1,2: e_1,2,1,2 - x_1,1,3 + p_1,1,2 <= 1
 c9b_1,2,2,1,2: - e_2,2,1,2 + x_1,1,3 + x_1,2,2 + p_1,2,2 <= 2
 c9c_1,2,2,1,2: e_2,2,1,2 - x_1,2,2 + p_1,2,2 <= 1
 c9d_1,2,2,1,2: e_2,2,1,2 - x_1,1,3 + p_1,2,2 <= 1
 c9a_1,2,1,3: x_1,1,4 + x_1,2,3 - p_1,1,3 - p_1,2,3 <= 1
 c9b_1,1,2,1,3: - e_1,2,1,3 + x_1,1,4 + x_1,2,3 + p_1,1,3 <= 2
 c9c_1,1,2,1,3: e_1,2,1,3 - x_1,2,3 + p_1,1,3 <= 1
 c9d_1,1,2,1,3: e_1,2,1,3 - x_1,1,4 + p_1,1,3 <= 1
 c9b_1,2,2,1,3: - e_2,2,1,3 + x_1,1,4 + x_1,2,3 + p_1,2,3 <= 2
 c9c_1,2,2,1,3: e_2,2,1,3 - x_1,2,3 + p_1,2,3 <= 1
 c9d_1,2,2,1,3: e_2,2,1,3 - x_1,1,4 + p_1,2,3 <= 1
 c9a_1,2,3,1: x_1,2,1 + x_1,3,2 - p_1,1,1 - p_1,2,1 <= 1
 c9b_1,1,2,3,1: - e_1,2,3,1 + x_1,2,1 + x_1,3,2 + p_1,1,1 <= 2
 c9c_1,1,2,3,1: e_1,2,3,1 - x_1,2,1 + p_1,1,1 <= 1
 c9d_1,1,2,3,1: e_1,2,3,1 - x_1,3,2 + p_1,1,1 <= 1
 c9b_1,2,2,3,1: - e_2,2,3,1 + x_1,2,1 + x_1,3,2 + p_1,2,1 <= 2
 c9c_1,2,2,3,1: e_2,2,3,1 - x_1,2,1 + p_1,2,1 <= 1
 c9d_1,2,2,3,1: e_2,2,3,1 - x_1,3,2 + p_1,2,1 <= 1
 c9a_1,2,3,2: x_1,2,2 + x_1,3,3 - p_1,1,2 - p_1,2,2 <= 1
 c9b_1,1,2,3,2: - e_1,2,3,2 + x_1,2,2 + x_1,3,3 + p_1,1,2 <= 2
 c9c_1,1,2,3,2: e_1,2,3,2 - x_1,2,2 + p_1,1,2 <= 1
 c9d_1,1,2,3,2: e_1,2,3,2 - x_1,3,3 + p_1,1,2 <= 1
 c9b_1,2,2,3,2: - e_2,2,3,2 + x_1,2,2 + x_1,3,3 + p_1,2,2 <= 2
 c9c_1,2,2,3,2: e_2,2,3,2 - x_1,2,2 + p_1,2,2 <= 1
 c9d_1,2,2,3,2: e_2,2,3,2 - x_1,3,3 + p_1,2,2 <= 1
 c9a_1,2,3,3: x_1,2,3 + x_1,3,4 - p_1,1,3 - p_1,2,3 <= 1
 c9b_1,1,2,3,3: - e_1,2,3,3 + x_1,2,3 + x_1,3,4 + p_1,1,3 <= 2
 c9c_1,1,2,3,3: e_1,2,3,3 - x_1,2,3 + p_1,1,3 <= 1
 c9d_1,1,2,3,3: e_1,2,3,3 - x_1,3,4 + p_1,1,3 <= 1
 c9b_1,2,2,3,3: - e_2,2,3,3 + x_1,2,3 + x_1,3,4 + p_1,2,3 <= 2
 c9c_1,2,2,3,3: e_2,2,3,3 - x_1,2,3 + p_1,2,3 <= 1
 c9d_1,2,2,3,3: e_2,2,3,3 - x_1,3,4 + p_1,2,3 <= 1
 c9a_1,3,2,1: x_1,2,2 + x_1,3,1 - p_1,1,1 - p_1,2,1 <= 1
 c9b_1,1,3,2,1: - e_1,3,2,1 + x_1,2,2 + x_1,3,1 + p_1,1,1 <= 2
 c9c_1,1,3,2,1: e_1,3,2,1 - x_1,3,1 + p_1,1,1 <= 1
 c9d_1,1,3,2,1: e_1,3,2,1 - x_1,2,2 + p_1,1,1 <= 1
 c9b_1,2,3,2,1: - e_2,3,2,1 + x_1,2,2 + x_1,3,1 + p_1,2,1 <= 2
 c9c_1,2,3,2,1: e_2,3,2,1 - x_1,3,1 + p_1,2,1 <= 1
 c9d_1,2,3,2,1: e_2,3,2,1 - x_1,2,2 + p_1,2,1 <= 1
 c9a_1,3,2,2: x_1,2,3 + x_1,3,2 - p_1,1,2 - p_1,2,2 <= 1
 c9b_1,1,3,2,2: - e_1,3,2,2 + x_1,2,3 + x_1,3,2 + p_1,1,2 <= 2
 c9c_1,1,3,2,2: e_1,3,2,2 - x_1,3,2 + p_1,1,2 <= 1
 c9d_1,1,3,2,2: e_1,3,2,2 - x_1,2,3 + p_1,1,2 <= 1
 c9b_1,2,3,2,2: - e_2,3,2,2 + x_1,2,3 + x_1,3,2 + p_1,2,2 <= 2
 c9c_1,2,3,2,2: e_2,3,2,2 - x_1,3,2 + p_1,2,2 <= 1
 c9d_1,2,3,2,2: e_2,3,2,2 - x_1,2,3 + p_1,2,2 <= 1
 c9a_1,3,2,3: x_1,2,4 + x_1,3,3 - p_1,1,3 - p_1,2,3 <= 1
 c9b_1,1,3,2,3: - e_1,3,2,3 + x_1,2,4 + x_1,3,3 + p_1,1,3 <= 2
 c9c_1,1,3,2,3: e_1,3,2,3 - x_1,3,3 + p_1,1,3 <= 1
 c9d_1,1,3,2,3: e_1,3,2,3 - x_1,2,4 + p_1,1,3 <= 1
 c9b_1,2,3,2,3: - e_2,3,2,3 + x_1,2,4 + x_1,3,3 + p_1,2,3 <= 2
 c9c_1,2,3,2,3: e_2,3,2,3 - x_1,3,3 + p_1,2,3 <= 1
 c9d_1,2,3,2,3: e_2,3,2,3 - x_1,2,4 + p_1,2,3 <= 1
 c9a_2,1,2,1: x_2,1,1 + x_2,2,2 - p_2,1,1 - p_2,2,1 <= 1
 c9b_2,1,1,2,1: - e_1,1,2,1 + x_2,1,1 + x_2,2,2 + p_2,1,1 <= 2
 c9c_2,1,1,2,1: e_1,1,2,1 - x_2,1,1 + p_2,1,1 <= 1
 c9d_2,1,1,2,1: e_1,1,2,1 - x_2,2,2 + p_2,1,1 <= 1
 c9b_2,2,1,2,1: - e_2,1,2,1 + x_2,1,1 + x_2,2,2 + p_2,2,1 <= 2
 c9c_2,2,1,2,1: e_2,1,2,1 - x_2,1,1 + p_2,2,1 <= 1
 c9d_2,2,1,2,1: e_2,1,2,1 - x_2,2,2 + p_2,2,1 <= 1
 c9a_2,1,2,2: x_2,1,2 + x_2,2,3 - p_2,1,2 - p_2,2,2 <= 1
 c9b_2,1,1,2,2: - e_1,1,2,2 + x_2,1,2 + x_2,2,3 + p_2,1,2 <= 2
 c9c_2,1,1,2,2: e_1,1,2,2 - x_2,1,2 + p_2,1,2 <= 1
 c9d_2,1,1,2,2: e_1,1,2,2 - x_2,2,3 + p_2,1,2 <= 1
 c9b_2,2,1,2,2: - e_2,1,2,2 + x_2,1,2 + x_2,2,3 + p_2,2,2 <= 2
 c9c_2,2,1,2,2: e_2,1,2,2 - x_2,1,2 + p_2,2,2 <= 1
 c9d_2,2,1,2,2: e_2,1,2,2 - x_2,2,3 + p_2,2,2 <= 1
 c9a_2,1,2,3: x_2,1,3 + x_2,2,4 - p_2,1,3 - p_2,2,3 <= 1
 c9b_2,1,1,2,3: - e_1,1,2,3 + x_2,1,3 + x_2,2,4 + p_2,1,3 <= 2
 c9c_2,1,1,2,3: e_1,1,2,3 - x_2,1,3 + p_2,1,3 <= 1
 c9d_2,1,1,2,3: e_1,1,2,3 - x_2,2,4 + p_2,1,3 <= 1
 c9b_2,2,1,2,3: - e_2,1,2,3 + x_2,1,3 + x_2,2,4 + p_2,2,3 <= 2
 c9c_2,2,1,2,3: e_2,1,2,3 - x_2,1,3 + p_2,2,3 <= 1
 c9d_2,2,1,2,3: e_2,1,2,3 - x_2,2,4 + p_2,2,3 <= 1
 c9a_2,2,1,1: x_2,1,2 + x_2,2,1 - p_2,1,1 - p_2,2,1 <= 1
 c9b_2,1,2,1,1: - e_1,2,1,1 + x_2,1,2 + x_2,2,1 + p_2,1,1 <= 2
 c9c_2,1,2,1,1: e_1,2,1,1 - x_2,2,1 + p_2,1,1 <= 1
 c9d_2,1,2,1,1: e_1,2,1,1 - x_2,1,2 + p_2,1,1 <= 1
 c9b_2,2,2,1,1: - e_2,2,1,1 + x_2,1,2 + x_2,2,1 + p_2,2,1 <= 2
 c9c_2,2,2,1,1: e_2,2,1,1 - x_2,2,1 + p_2,2,1 <= 1
 c9d_2,2,2,1,1: e_2,2,1,1 - x_2,1,2 + p_2,2,1 <= 1
 c9a_2,2,1,2: x_2,1,3 + x_2,2,2 - p_2,1,2 - p_2,2,2 <= 1
 c9b_2,1,2,1,2: - e_1,2,1,2 + x_2,1,3 + x_2,2,2 + p_2,1,2 <= 2
 c9c_2,1,2,1,2: e_1,2,1,2 - x_2,2,2 + p_2,1,2 <= 1
 c9d_2,1,2,1,2: e_1,2,1,2 - x_2,1,3 + p_2,1,2 <= 1
 c9b_2,2,2,1,2: - e_2,2,1,2 + x_2,1,3 + x_2,2,2 + p_2,2,2 <= 2
 c9c_2,2,2,1,2: e_2,2,1,2 - x_2,2,2 + p_2,2,2 <= 1
 c9d_2,2,2,1,2: e_2,2,1,2 - x_2,1,3 + p_2,2,2 <= 1
 c9a_2,2,1,3: x_2,1,4 + x_2,2,3 - p_2,1,3 - p_2,2,3 <= 1
 c9b_2,1,2,1,3: - e_1,2,1,3 + x_2,1,4 + x_2,2,3 + p_2,1,3 <= 2
 c9c_2,1,2,1,3: e_1,2,1,3 - x_2,2,3 + p_2,1,3 <= 1
 c9d_2,1,2,1,3: e_1,2,1,3 - x_2,1,4 + p_2,1,3 <= 1
 c9b_2,2,2,1,3: - e_2,2,1,3 + x_2,1,4 + x_2,2,3 + p_2,2,3 <= 2
 c9c_2,2,2,1,3: e_2,2,1,3 - x_2,2,3 + p_2,2,3 <= 1
 c9d_2,2,2,1,3: e_2,2,1,3 - x_2,1,4 + p_2,2,3 <= 1
 c9a_2,2,3,1: x_2,2,1 + x_2,3,2 - p_2,1,1 - p_2,2,1 <= 1
 c9b_2,1,2,3,1: - e_1,2,3,1 + x_2,2,1 + x_2,3,2 + p_2,1,1 <= 2
 c9c_2,1,2,3,1: e_1,2,3,1 - x_2,2,1 + p_2,1,1 <= 1
 c9d_2,1,2,3,1: e_1,2,3,1 - x_2,3,2 + p_2,1,1 <= 1
 c9b_2,2,2,3,1: - e_2,2,3,1 + x_2,2,1 + x_2,3,2 + p_2,2,1 <= 2
 c9c_2,2,2,3,1: e_2,2,3,1 - x_2,2,1 + p_2,2,1 <= 1
 c9d_2,2,2,3,1: e_2,2,3,1 - x_2,3,2 + p_2,2,1 <= 1
 c9a_2,2,3,2: x_2,2,2 + x_2,3,3 - p_2,1,2 - p_2,2,2 <= 1
 c9b_2,1,2,3,2: - e_1,2,3,2 + x_2,2,2 + x_2,3,3 + p_2,1,2 <= 2
 c9c_2,1,2,3,2: e_1,2,3,2 - x_2,2,2 + p_2,1,2 <= 1
 c9d_2,1,2,3,2: e_1,2,3,2 - x_2,3,3 + p_2,1,2 <= 1
 c9b_2,2,2,3,2: - e_2,2,3,2 + x_2,2,2 + x_2,3,3 + p_2,2,2 <= 2
 c9c_2,2,2,3,2: e_2,2,3,2 - x_2,2,2 + p_2,2,2 <= 1
 c9d_2,2,2,3,2: e_2,2,3,2 - x_2,3,3 + p_2,2,2 <= 1
 c9a_2,2,3,3: x_2,2,3 + x_2,3,4 - p_2,1,3 - p_2,2,3 <= 1
 c9b_2,1,2,3,3: - e_1,2,3,3 + x_2,2,3 + x_2,3,4 + p_2,1,3 <= 2
 c9c_2,1,2,3,3: e_1,2,3,3 - x_2,2,3 + p_2,1,3 <= 1
 c9d_2,1,2,3,3: e_1,2,3,3 - x_2,3,4 + p_2,1,3 <= 1
 c9b_2,2,2,3,3: - e_2,2,3,3 + x_2,2,3 + x_2,3,4 + p_2,2,3 <= 2
 c9c_2,2,2,3,3: e_2,2,3,3 - x_2,2,3 + p_2,2,3 <= 1
 c9d_2,2,2,3,3: e_2,2,3,3 - x_2,3,4 + p_2,2,3 <= 1
 c9a_2,3,2,1: x_2,2,2 + x_2,3,1 - p_2,1,1 - p_2,2,1 <= 1
 c9b_2,1,3,2,1: - e_1,3,2,1 + x_2,2,2 + x_2,3,1 + p_2,1,1 <= 2
 c9c_2,1,3,2,1: e_1,3,2,1 - x_2,3,1 + p_2,1,1 <= 1
 c9d_2,1,3,2,1: e_1,3,2,1 - x_2,2,2 + p_2,1,1 <= 1
 c9b_2,2,3,2,1: - e_2,3,2,1 + x_2,2,2 + x_2,3,1 + p_2,2,1 <= 2
 c9c_2,2,3,2,1: e_2,3,2,1 - x_2,3,1 + p_2,2,1 <= 1
 c9d_2,2,3,2,1: e_2,3,2,1 - x_2,2,2 + p_2,2,1 <= 1
 c9a_2,3,2,2: x_2,2,3 + x_2,3,2 - p_2,1,2 - p_2,2,2 <= 1
 c9b_2,1,3,2,2: - e_1,3,2,2 + x_2,2,3 + x_2,3,2 + p_2,1,2 <= 2
 c9c_2,1,3,2,2: e_1,3,2,2 - x_2,3,2 + p_2,1,2 <= 1
 c9d_2,1,3,2,2: e_1,3,2,2 - x_2,2,3 + p_2,1,2 <= 1
 c9b_2,2,3,2,2: - e_2,3,2,2 + x_2,2,3 + x_2,3,2 + p_2,2,2 <= 2
 c9c_2,2,3,2,2: e_2,3,2,2 - x_2,3,2 + p_2,2,2 <= 1
 c9d_2,2,3,2,2: e_2,3,2,2 - x_2,2,3 + p_2,2,2 <= 1
 c9a_2,3,2,3: x_2,2,4 + x_2,3,3 - p_2,1,3 - p_2,2,3 <= 1
 c9b_2,1,3,2,3: - e_1,3,2,3 + x_2,2,4 + x_2,3,3 + p_2,1,3 <= 2
 c9c_2,1,3,2,3: e_1,3,2,3 - x_2,3,3 + p_2,1,3 <= 1
 c9d_2,1,3,2,3: e_1,3,2,3 - x_2,2,4 + p_2,1,3 <= 1
 c9b_2,2,3,2,3: - e_2,3,2,3 + x_2,2,4 + x_2,3,3 + p_2,2,3 <= 2
 c9c_2,2,3,2,3: e_2,3,2,3 - x_2,3,3 + p_2,2,3 <= 1
 c9d_2,2,3,2,3: e_2,3,2,3 - x_2,2,4 + p_2,2,3 <= 1
 c10_1,1,31: x_1,1,1 + x_1,3,2 <= 1
 c10_1,3,11: x_1,1,2 + x_1,3,1 <= 1
 c10_1,1,32: x_1,1,2 + x_1,3,3 <= 1
 c10_1,3,12: x_1,1,3 + x_1,3,2 <= 1
 c10_1,1,33: x_1,1,3 + x_1,3,4 <= 1
 c10_1,3,13: x_1,1,4 + x_1,3,3 <= 1
 c10_2,1,31: x_2,1,1 + x_2,3,2 <= 1
 c10_2,3,11: x_2,1,2 + x_2,3,1 <= 1
 c10_2,1,32: x_2,1,2 + x_2,3,3 <= 1
 c10_2,3,12: x_2,1,3 + x_2,3,2 <= 1
 c10_2,1,33: x_2,1,3 + x_2,3,4 <= 1
 c10_2,3,13: x_2,1,4 + x_2,3,3 <= 1
 c11_1,1: p_1,1,1 + p_2,1,1 <= 1
 c11_1,2: p_1,1,2 + p_2,1,2 <= 1
 c11_1,3: p_1,1,3 + p_2,1,3 <= 1
 c11_2,1: p_1,2,1 + p_2,2,1 <= 1
 c11_2,2: p_1,2,2 + p_2,2,2 <= 1
 c11_2,3: p_1,2,3 + p_2,2,3 <= 1
 c12_1,1init: e_1,1,2,1 + e_1,1,1,1 + e_2,1,2,1 + e_2,1,1,1 <= 2
 c12_2,1init: e_1,2,1,1 + e_1,2,3,1 + e_1,2,2,1 + e_2,2,1,1 + e_2,2,3,1
   + e_2,2,2,1 <= 1
 c12_3,1init: e_1,3,3,1 + e_1,3,2,1 + e_2,3,3,1 + e_2,3,2,1 <= 2
 c12_1,1: e_1,2,1,1 + e_1,1,1,1 + e_2,2,1,1 + e_2,1,1,1 <= 2
 c12_1,2: e_1,2,1,2 + e_1,1,1,2 + e_2,2,1,2 + e_2,1,1,2 <= 2
 c12_1,3: e_1,2,1,3 + e_1,1,1,3 + e_2,2,1,3 + e_2,1,1,3 <= 2
 c12_2,1: e_1,1,2,1 + e_1,2,2,1 + e_1,3,2,1 + e_2,1,2,1 + e_2,2,2,1
   + e_2,3,2,1 <= 1
 c12_2,2: e_1,1,2,2 + e_1,2,2,2 + e_1,3,2,2 + e_2,1,2,2 + e_2,2,2,2
   + e_2,3,2,2 <= 1
 c12_2,3: e_1,1,2,3 + e_1,2,2,3 + e_1,3,2,3 + e_2,1,2,3 + e_2,2,2,3
   + e_2,3,2,3 <= 1
 c12_3,1: e_1,2,3,1 + e_1,3,3,1 + e_2,2,3,1 + e_2,3,3,1 <= 2
 c12_3,2: e_1,2,3,2 + e_1,3,3,2 + e_2,2,3,2 + e_2,3,3,2 <= 2
 c12_3,3: e_1,2,3,3 + e_1,3,3,3 + e_2,2,3,3 + e_2,3,3,3 <= 2
 c13_1: soc_1,1 = 1
 c13_2: soc_2,1 = 1
 c14_1,1: - e_1,1,1,1 - e_1,3,3,1 - e_1,2,2,1 + gamma_1,1 <= 0
 c14_1,2: - e_1,1,1,2 - e_1,3,3,2 - e_1,2,2,2 + gamma_1,2 <= 0
 c14_1,3: - e_1,1,1,3 - e_1,3,3,3 - e_1,2,2,3 + gamma_1,3 <= 0
 c14_2,1: - e_2,1,1,1 - e_2,3,3,1 - e_2,2,2,1 + gamma_2,1 <= 0
 c14_2,2: - e_2,1,1,2 - e_2,3,3,2 - e_2,2,2,2 + gamma_2,2 <= 0
 c14_2,3: - e_2,1,1,3 - e_2,3,3,3 - e_2,2,2,3 + gamma_2,3 <= 0
 c15_1,2: 0.3333333333333333 e_1,1,2,1 + 0.3333333333333333 e_1,2,1,1
   + 0.3333333333333333 e_1,2,3,1 + 0.3333333333333333 e_1,3,2,1
   + 0.02 p_1,1,1 + 0.02 p_2,1,1 - soc_1,1 - 0.1 gamma_1,1 + soc_1,2 = 0
 c15_1,3: 0.3333333333333333 e_1,1,2,2 + 0.3333333333333333 e_1,2,1,2
   + 0.3333333333333333 e_1,2,3,2 + 0.3333333333333333 e_1,3,2,2
   + 0.02 p_1,1,2 + 0.02 p_2,1,2 - soc_1,2 - 0.1 gamma_1,2 + soc_1,3 = 0
 c15_1,4: 0.3333333333333333 e_1,1,2,3 + 0.3333333333333333 e_1,2,1,3
   + 0.3333333333333333 e_1,2,3,3 + 0.3333333333333333 e_1,3,2,3
   + 0.02 p_1,1,3 + 0.02 p_2,1,3 - soc_1,3 - 0.1 gamma_1,3 + soc_1,4 = 0
 c15_2,2: 0.3333333333333333 e_2,1,2,1 + 0.3333333333333333 e_2,2,1,1
   + 0.3333333333333333 e_2,2,3,1 + 0.3333333333333333 e_2,3,2,1
   + 0.02 p_1,2,1 + 0.02 p_2,2,1 - soc_2,1 - 0.1 gamma_2,1 + soc_2,2 = 0
 c15_2,3: 0.3333333333333333 e_2,1,2,2 + 0.3333333333333333 e_2,2,1,2
   + 0.3333333333333333 e_2,2,3,2 + 0.3333333333333333 e_2,3,2,2
   + 0.02 p_1,2,2 + 0.02 p_2,2,2 - soc_2,2 - 0.1 gamma_2,2 + soc_2,3 = 0
 c15_2,4: 0.3333333333333333 e_2,1,2,3 + 0.3333333333333333 e_2,2,1,3
   + 0.3333333333333333 e_2,2,3,3 + 0.3333333333333333 e_2,3,2,3
   + 0.02 p_1,2,3 + 0.02 p_2,2,3 - soc_2,3 - 0.1 gamma_2,3 + soc_2,4 = 0
Bounds
 soc_1,1 <= 1
 soc_1,2 <= 1
 soc_1,3 <= 1
 soc_1,4 <= 1
 soc_2,1 <= 1
 soc_2,2 <= 1
 soc_2,3 <= 1
 soc_2,4 <= 1
Binaries
 delta_1 delta_2 delta_3 delta_4 e_1,1,2,1 e_1,1,2,2 e_1,1,2,3 e_1,2,1,1
 e_1,2,1,2 e_1,2,1,3 e_1,1,1,1 e_1,1,1,2 e_1,1,1,3 e_1,2,3,1 e_1,2,3,2
 e_1,2,3,3 e_1,3,3,1 e_1,3,3,2 e_1,3,3,3 e_1,2,2,1 e_1,2,2,2 e_1,2,2,3
 e_1,3,2,1 e_1,3,2,2 e_1,3,2,3 e_2,1,2,1 e_2,1,2,2 e_2,1,2,3 e_2,2,1,1
 e_2,2,1,2 e_2,2,1,3 e_2,1,1,1 e_2,1,1,2 e_2,1,1,3 e_2,2,3,1 e_2,2,3,2
 e_2,2,3,3 e_2,3,3,1 e_2,3,3,2 e_2,3,3,3 e_2,2,2,1 e_2,2,2,2 e_2,2,2,3
 e_2,3,2,1 e_2,3,2,2 e_2,3,2,3 x_1,1,1 x_1,1,2 x_1,1,3 x_1,1,4 x_1,2,1
 x_1,2,2 x_1,2,3 x_1,2,4 x_1,3,1 x_1,3,2 x_1,3,3 x_1,3,4 x_2,1,1 x_2,1,2
 x_2,1,3 x_2,1,4 x_2,2,1 x_2,2,2 x_2,2,3 x_2,2,4 x_2,3,1 x_2,3,2 x_2,3,3
 x_2,3,4 p_1,1,1 p_1,1,2 p_1,1,3 p_1,2,1 p_1,2,2 p_1,2,3 p_2,1,1 p_2,1,2
 p_2,1,3 p_2,2,1 p_2,2,2 p_2,2,3 gamma_1,1 gamma_1,2 gamma_1,3 gamma_2,1
 gamma_2,2 gamma_2,3
End
